Academic license - for non-commercial use only
Optimize a model with 18075 rows, 96051 columns and 201123 nonzeros
Variable types: 96025 continuous, 26 integer (0 binary)
Coefficient statistics:
  Matrix range     [1e+00, 3e+02]
  Objective range  [5e-02, 8e+01]
  Bounds range     [8e-04, 1e+01]
  RHS range        [0e+00, 0e+00]
Found heuristic solution: objective 705.7136000
Presolve removed 5339 rows and 50606 columns
Presolve time: 0.45s
Presolved: 12736 rows, 45445 columns, 104894 nonzeros
Variable types: 45419 continuous, 26 integer (26 binary)
Deterministic concurrent LP optimizer: primal and dual simplex
Showing first log only...

Concurrent spin time: 0.00s

Solved with dual simplex
Root relaxation: objective 6.283258e+02, 11417 iterations, 0.66 seconds
    Nodes    |    Current Node    |     Objective Bounds      |     Work
 Expl Unexpl |  Obj  Depth IntInf | Incumbent    BestBd   Gap | It/Node Time

     0     0  628.32582    0   24  705.71360  628.32582  11.0%     -    1s
     0     0  633.31789    0   24  705.71360  633.31789  10.3%     -   13s
     0     0  639.01286    0   24  705.71360  639.01286  9.45%     -   37s
     0     0  641.88088    0   24  705.71360  641.88088  9.05%     -   52s
     0     0  643.60913    0   24  705.71360  643.60913  8.80%     -   73s
     0     0  644.81346    0   24  705.71360  644.81346  8.63%     -   83s
     0     0  645.91985    0   25  705.71360  645.91985  8.47%     -  102s
     0     0  646.62263    0   25  705.71360  646.62263  8.37%     -  118s
     0     0  647.29939    0   25  705.71360  647.29939  8.28%     -  139s
     0     0  647.79292    0   25  705.71360  647.79292  8.21%     -  154s
     0     0  648.13678    0   25  705.71360  648.13678  8.16%     -  162s
     0     0  648.30737    0   25  705.71360  648.30737  8.13%     -  166s
     0     0  648.47843    0   25  705.71360  648.47843  8.11%     -  171s
     0     0  648.56788    0   25  705.71360  648.56788  8.10%     -  176s
     0     0  648.64740    0   25  705.71360  648.64740  8.09%     -  180s
     0     0  648.71178    0   25  705.71360  648.71178  8.08%     -  183s
     0     0  648.81252    0   25  705.71360  648.81252  8.06%     -  185s
     0     0  648.87803    0   25  705.71360  648.87803  8.05%     -  186s
     0     0  648.92544    0   25  705.71360  648.92544  8.05%     -  186s
     0     0  648.92549    0   25  705.71360  648.92549  8.05%     -  186s
     0     0  652.61307    0   25  705.71360  652.61307  7.52%     -  205s
     0     0  657.19754    0   25  705.71360  657.19754  6.87%     -  244s
     0     0  659.09305    0   24  705.71360  659.09305  6.61%     -  275s
     0     0  659.86848    0   24  705.71360  659.86848  6.50%     -  302s
     0     0  660.21280    0   24  705.71360  660.21280  6.45%     -  317s
     0     0  660.46548    0   24  705.71360  660.46548  6.41%     -  334s
     0     0  660.56948    0   24  705.71360  660.56948  6.40%     -  349s
     0     0  660.75673    0   24  705.71360  660.75673  6.37%     -  360s
     0     0  660.92994    0   24  705.71360  660.92994  6.35%     -  367s
     0     0  660.99331    0   24  705.71360  660.99331  6.34%     -  373s
     0     0  661.14315    0   24  705.71360  661.14315  6.32%     -  381s
     0     0  661.29915    0   24  705.71360  661.29915  6.29%     -  388s
     0     0  661.36894    0   24  705.71360  661.36894  6.28%     -  393s
     0     0  661.41803    0   24  705.71360  661.41803  6.28%     -  395s
     0     0  661.45565    0   24  705.71360  661.45565  6.27%     -  396s
     0     0  661.49040    0   24  705.71360  661.49040  6.27%     -  399s
     0     0  661.52452    0   24  705.71360  661.52452  6.26%     -  402s
     0     0  661.55404    0   24  705.71360  661.55404  6.26%     -  403s
     0     0  661.56475    0   24  705.71360  661.56475  6.26%     -  404s
     0     0  668.20125    0   24  705.71360  668.20125  5.32%     -  434s
     0     0  671.40764    0   22  705.71360  671.40764  4.86%     -  468s
     0     0  671.82625    0   23  705.71360  671.82625  4.80%     -  494s
     0     0  671.92803    0   24  705.71360  671.92803  4.79%     -  500s
     0     0  671.97449    0   24  705.71360  671.97449  4.78%     -  508s
     0     0  677.31021    0   20  705.71360  677.31021  4.02%     -  554s
     0     0  678.77524    0   23  705.71360  678.77524  3.82%     -  582s
     0     0  678.89474    0   24  705.71360  678.89474  3.80%     -  597s
     0     0  678.92694    0   24  705.71360  678.92694  3.80%     -  609s
     0     0  682.60797    0   24  705.71360  682.60797  3.27%     -  651s
     0     0  683.87315    0   24  705.71360  683.87315  3.09%     -  676s
     0     0  684.41165    0   24  705.71360  684.41165  3.02%     -  692s
     0     0  684.70800    0   24  705.71360  684.70800  2.98%     -  699s
     0     0  684.81700    0   24  705.71360  684.81700  2.96%     -  706s
     0     0  684.84180    0   24  705.71360  684.84180  2.96%     -  710s
     0     0  688.82950    0   24  705.71360  688.82950  2.39%     -  745s
     0     0  689.66546    0   24  705.71360  689.66546  2.27%     -  766s
     0     0  690.19283    0   24  705.71360  690.19283  2.20%     -  779s
     0     0  690.37044    0   24  705.71360  690.37044  2.17%     -  787s
     0     0  690.49548    0   24  705.71360  690.49548  2.16%     -  796s
     0     0  690.54113    0   24  705.71360  690.54113  2.15%     -  803s
     0     0  693.05922    0   24  705.71360  693.05922  1.79%     -  822s
     0     0  693.90625    0   24  705.71360  693.90625  1.67%     -  838s
     0     0  694.13118    0   24  705.71360  694.13118  1.64%     -  851s
     0     0  694.20144    0   24  705.71360  694.20144  1.63%     -  862s
     0     0  695.55482    0   24  705.71360  695.55482  1.44%     -  881s
     0     0  695.82810    0   24  705.71360  695.82810  1.40%     -  903s
     0     0  696.00509    0   24  705.71360  696.00509  1.38%     -  914s
     0     0  696.07695    0   24  705.71360  696.07695  1.37%     -  924s
     0     0  696.65298    0   22  705.71360  696.65298  1.28%     -  932s
     0     0  696.65298    0   22  705.71360  696.65298  1.28%     -  934s
H    0     0                     697.3288496  696.65298  0.10%     -  940s
     0     2  696.65298    0   22  697.32885  696.65298  0.10%     -  954s
     1     2     cutoff    1       697.32885  696.65374  0.10%  3139  955s
     3     2  696.78075    2   22  697.32885  696.65722  0.10%  5551  965s
     9     2  697.15770    5    1  697.32885  696.91588  0.06%  3021  970s
Cutting planes:
  Implied bound: 21368
  MIR: 282
  Flow cover: 3

Explored 13 nodes (730350 simplex iterations) in 970.50 seconds
Thread count was 4 (of 4 available processors)

Solution count 2: 697.329 705.714 

Optimal solution found (tolerance 1.00e-04)
Best objective 6.973288495799e+02, best bound 6.973288495799e+02, gap 0.0000%
Gurobi status= 2